p cnf 15 33
-15 -14 -4 0
15 -13 10 0
-15 -11 7 0
15 -10 -7 0
15 10 -3 0
15 8 -1 0
-14 13 -4 0
-14 13 2 0
14 -12 -9 0
-14 11 9 0
14 8 3 0
14 -5 -4 0
13 12 8 0
-13 11 -8 0
13 -11 -8 0
13 -11 6 0
13 10 6 0
-13 -10 2 0
13 -9 4 0
-13 8 2 0
-13 -3 -1 0
-12 11 2 0
12 8 6 0
12 -5 -1 0
-10 -8 6 0
-10 -8 -2 0
10 -5 -1 0
-9 -7 -3 0
9 -5 2 0
9 5 -1 0
7 -6 -4 0
-7 4 -1 0
6 -3 1 0
